(set-info :source |printed by MathSAT|)
(declare-fun |!{$(in_main#0)<N>}| () Int)
(declare-fun |!{$(in_main#0)<N>}.next| () Int)
(declare-fun |!{$(in_main#0)<a>}| () Int)
(declare-fun |!{$(in_main#0)<a>}.next| () Int)
(declare-fun |!{$(in_main#0)<i>}| () Int)
(declare-fun |!{$(in_main#0)<i>}.next| () Int)
(declare-fun |!{$(in_main#0)<x>}| () Int)
(declare-fun |!{$(in_main#0)<x>}.next| () Int)
(declare-fun |!{$(in_main#0)<a1.1>}| () (Array Int Int))
(declare-fun |!{$(in_main#0)<a1.1>}.next| () (Array Int Int))
(declare-fun |!{$(in_main#0)<a4.2>}| () (Array Int Int))
(declare-fun |!{$(in_main#0)<a4.2>}.next| () (Array Int Int))
(declare-fun |!{$(in_main#0)<a2.3>}| () (Array Int Int))
(declare-fun |!{$(in_main#0)<a2.3>}.next| () (Array Int Int))
(declare-fun |!{$(in_main#0)<a3.4>}| () (Array Int Int))
(declare-fun |!{$(in_main#0)<a3.4>}.next| () (Array Int Int))
(declare-fun |!{$(in_main#0)<a5.5>}| () (Array Int Int))
(declare-fun |!{$(in_main#0)<a5.5>}.next| () (Array Int Int))
(declare-fun |!{$(in_main#0)<$(in___VERIFIER_nondet_int#0)<h#<__VERIFIER_nondet_int.return>>>}| () Int)
(declare-fun |!{$(in_main#0)<$(in___VERIFIER_nondet_int#1)<h#<__VERIFIER_nondet_int.return>>>}| () Int)
(declare-fun |!{$(in_main#0)<$(in___VERIFIER_nondet_int#2)<h#<__VERIFIER_nondet_int.return>>>}| () Int)
(declare-fun !pc () Int)
(declare-fun !pc.next () Int)
(declare-fun |%{$(in_main#0)<i>}#1| () Int)
(declare-fun |%{$(in_main#0)<x>}#1| () Int)
(declare-fun |%{$(in_main#0)<a1.1>}#1| () (Array Int Int))
(declare-fun |%{$(in_main#0)<a4.2>}#1| () (Array Int Int))
(declare-fun |%{$(in_main#0)<a2.3>}#1| () (Array Int Int))
(declare-fun |%{$(in_main#0)<a3.4>}#1| () (Array Int Int))
(declare-fun |%{$(in_main#0)<a5.5>}#1| () (Array Int Int))
(define-fun .def_46 () Int (! !pc :next !pc.next))
(define-fun .def_49 () Bool (! (= .def_46 2) :init true))
(define-fun .def_264 () Bool (= .def_46 35))
(define-fun .def_237 () Bool (= !pc.next 64))
(define-fun .def_267 () Bool (and .def_237 .def_264))
(define-fun .def_10 () Int (! |!{$(in_main#0)<a>}| :next |!{$(in_main#0)<a>}.next|))
(define-fun .def_8 () Int (! |!{$(in_main#0)<N>}| :next |!{$(in_main#0)<N>}.next|))
(define-fun .def_244 () Bool (<= .def_8 .def_10))
(define-fun .def_195 () Bool (= |!{$(in_main#0)<i>}.next| 0))
(define-fun .def_99 () Bool (= .def_10 |!{$(in_main#0)<a>}.next|))
(define-fun .def_97 () Bool (= .def_8 |!{$(in_main#0)<N>}.next|))
(define-fun .def_116 () Bool (and .def_97 .def_99))
(define-fun .def_196 () Bool (and .def_116 .def_195))
(define-fun .def_14 () Int (! |!{$(in_main#0)<x>}| :next |!{$(in_main#0)<x>}.next|))
(define-fun .def_103 () Bool (= .def_14 |!{$(in_main#0)<x>}.next|))
(define-fun .def_197 () Bool (and .def_103 .def_196))
(define-fun .def_16 () (Array Int Int) (! |!{$(in_main#0)<a1.1>}| :next |!{$(in_main#0)<a1.1>}.next|))
(define-fun .def_105 () Bool (= .def_16 |!{$(in_main#0)<a1.1>}.next|))
(define-fun .def_198 () Bool (and .def_105 .def_197))
(define-fun .def_18 () (Array Int Int) (! |!{$(in_main#0)<a4.2>}| :next |!{$(in_main#0)<a4.2>}.next|))
(define-fun .def_107 () Bool (= .def_18 |!{$(in_main#0)<a4.2>}.next|))
(define-fun .def_199 () Bool (and .def_107 .def_198))
(define-fun .def_20 () (Array Int Int) (! |!{$(in_main#0)<a2.3>}| :next |!{$(in_main#0)<a2.3>}.next|))
(define-fun .def_109 () Bool (= .def_20 |!{$(in_main#0)<a2.3>}.next|))
(define-fun .def_200 () Bool (and .def_109 .def_199))
(define-fun .def_22 () (Array Int Int) (! |!{$(in_main#0)<a3.4>}| :next |!{$(in_main#0)<a3.4>}.next|))
(define-fun .def_111 () Bool (= .def_22 |!{$(in_main#0)<a3.4>}.next|))
(define-fun .def_201 () Bool (and .def_111 .def_200))
(define-fun .def_24 () (Array Int Int) (! |!{$(in_main#0)<a5.5>}| :next |!{$(in_main#0)<a5.5>}.next|))
(define-fun .def_113 () Bool (= .def_24 |!{$(in_main#0)<a5.5>}.next|))
(define-fun .def_202 () Bool (and .def_113 .def_201))
(define-fun .def_263 () Bool (and .def_202 .def_244))
(define-fun .def_268 () Bool (and .def_263 .def_267))
(define-fun .def_83 () Bool (= !pc.next 35))
(define-fun .def_265 () Bool (and .def_83 .def_264))
(define-fun .def_247 () (Array Int Int) (store .def_18 .def_10 |!{$(in_main#0)<$(in___VERIFIER_nondet_int#2)<h#<__VERIFIER_nondet_int.return>>>}|))
(define-fun .def_257 () Bool (= |!{$(in_main#0)<a4.2>}.next| .def_247))
(define-fun .def_246 () (Array Int Int) (store .def_16 .def_10 |!{$(in_main#0)<$(in___VERIFIER_nondet_int#1)<h#<__VERIFIER_nondet_int.return>>>}|))
(define-fun .def_255 () Bool (= |!{$(in_main#0)<a1.1>}.next| .def_246))
(define-fun .def_249 () Int (* (- 1) |!{$(in_main#0)<a>}.next|))
(define-fun .def_250 () Int (+ .def_10 .def_249))
(define-fun .def_251 () Bool (= .def_250 (- 1)))
(define-fun .def_252 () Bool (and .def_97 .def_251))
(define-fun .def_12 () Int (! |!{$(in_main#0)<i>}| :next |!{$(in_main#0)<i>}.next|))
(define-fun .def_101 () Bool (= .def_12 |!{$(in_main#0)<i>}.next|))
(define-fun .def_253 () Bool (and .def_101 .def_252))
(define-fun .def_254 () Bool (and .def_103 .def_253))
(define-fun .def_256 () Bool (and .def_254 .def_255))
(define-fun .def_258 () Bool (and .def_256 .def_257))
(define-fun .def_259 () Bool (and .def_109 .def_258))
(define-fun .def_260 () Bool (and .def_111 .def_259))
(define-fun .def_261 () Bool (and .def_113 .def_260))
(define-fun .def_245 () Bool (not .def_244))
(define-fun .def_262 () Bool (and .def_245 .def_261))
(define-fun .def_266 () Bool (and .def_262 .def_265))
(define-fun .def_269 () Bool (or .def_266 .def_268))
(define-fun .def_236 () Bool (= .def_46 64))
(define-fun .def_221 () Bool (= !pc.next 78))
(define-fun .def_240 () Bool (and .def_221 .def_236))
(define-fun .def_156 () Bool (<= .def_8 .def_12))
(define-fun .def_203 () Bool (and .def_156 .def_202))
(define-fun .def_241 () Bool (and .def_203 .def_240))
(define-fun .def_238 () Bool (and .def_236 .def_237))
(define-fun .def_228 () Int (select .def_16 .def_12))
(define-fun .def_229 () (Array Int Int) (store .def_20 .def_12 .def_228))
(define-fun .def_230 () Bool (= |!{$(in_main#0)<a2.3>}.next| .def_229))
(define-fun .def_161 () Int (* (- 1) |!{$(in_main#0)<i>}.next|))
(define-fun .def_162 () Int (+ .def_12 .def_161))
(define-fun .def_163 () Bool (= .def_162 (- 1)))
(define-fun .def_164 () Bool (and .def_116 .def_163))
(define-fun .def_165 () Bool (and .def_103 .def_164))
(define-fun .def_166 () Bool (and .def_105 .def_165))
(define-fun .def_167 () Bool (and .def_107 .def_166))
(define-fun .def_231 () Bool (and .def_167 .def_230))
(define-fun .def_232 () Bool (and .def_111 .def_231))
(define-fun .def_233 () Bool (and .def_113 .def_232))
(define-fun .def_157 () Bool (not .def_156))
(define-fun .def_234 () Bool (and .def_157 .def_233))
(define-fun .def_239 () Bool (and .def_234 .def_238))
(define-fun .def_242 () Bool (or .def_239 .def_241))
(define-fun .def_220 () Bool (= .def_46 78))
(define-fun .def_206 () Bool (= !pc.next 92))
(define-fun .def_224 () Bool (and .def_206 .def_220))
(define-fun .def_225 () Bool (and .def_203 .def_224))
(define-fun .def_222 () Bool (and .def_220 .def_221))
(define-fun .def_213 () Int (select .def_20 .def_12))
(define-fun .def_214 () (Array Int Int) (store .def_22 .def_12 .def_213))
(define-fun .def_215 () Bool (= |!{$(in_main#0)<a3.4>}.next| .def_214))
(define-fun .def_168 () Bool (and .def_109 .def_167))
(define-fun .def_216 () Bool (and .def_168 .def_215))
(define-fun .def_217 () Bool (and .def_113 .def_216))
(define-fun .def_218 () Bool (and .def_157 .def_217))
(define-fun .def_223 () Bool (and .def_218 .def_222))
(define-fun .def_226 () Bool (or .def_223 .def_225))
(define-fun .def_205 () Bool (= .def_46 92))
(define-fun .def_183 () Bool (= !pc.next 106))
(define-fun .def_209 () Bool (and .def_183 .def_205))
(define-fun .def_210 () Bool (and .def_203 .def_209))
(define-fun .def_207 () Bool (and .def_205 .def_206))
(define-fun .def_190 () Int (select .def_22 .def_12))
(define-fun .def_191 () (Array Int Int) (store .def_24 .def_12 .def_190))
(define-fun .def_192 () Bool (= |!{$(in_main#0)<a5.5>}.next| .def_191))
(define-fun .def_169 () Bool (and .def_111 .def_168))
(define-fun .def_193 () Bool (and .def_169 .def_192))
(define-fun .def_194 () Bool (and .def_157 .def_193))
(define-fun .def_208 () Bool (and .def_194 .def_207))
(define-fun .def_211 () Bool (or .def_208 .def_210))
(define-fun .def_182 () Bool (= .def_46 106))
(define-fun .def_145 () Bool (= !pc.next 120))
(define-fun .def_186 () Bool (and .def_145 .def_182))
(define-fun .def_173 () Bool (= |!{$(in_main#0)<x>}.next| 0))
(define-fun .def_117 () Bool (and .def_101 .def_116))
(define-fun .def_174 () Bool (and .def_117 .def_173))
(define-fun .def_175 () Bool (and .def_105 .def_174))
(define-fun .def_176 () Bool (and .def_107 .def_175))
(define-fun .def_177 () Bool (and .def_109 .def_176))
(define-fun .def_178 () Bool (and .def_111 .def_177))
(define-fun .def_179 () Bool (and .def_113 .def_178))
(define-fun .def_180 () Bool (and .def_156 .def_179))
(define-fun .def_187 () Bool (and .def_180 .def_186))
(define-fun .def_184 () Bool (and .def_182 .def_183))
(define-fun .def_158 () Int (select .def_18 .def_12))
(define-fun .def_159 () (Array Int Int) (store .def_24 .def_12 .def_158))
(define-fun .def_170 () Bool (= |!{$(in_main#0)<a5.5>}.next| .def_159))
(define-fun .def_171 () Bool (and .def_169 .def_170))
(define-fun .def_172 () Bool (and .def_157 .def_171))
(define-fun .def_185 () Bool (and .def_172 .def_184))
(define-fun .def_188 () Bool (or .def_185 .def_187))
(define-fun .def_149 () Bool (= !pc.next 0))
(define-fun .def_140 () Bool (= .def_46 120))
(define-fun .def_150 () Bool (and .def_140 .def_149))
(define-fun .def_86 () Bool (<= .def_8 .def_14))
(define-fun .def_130 () Bool (and .def_86 .def_97))
(define-fun .def_131 () Bool (and .def_99 .def_130))
(define-fun .def_132 () Bool (and .def_101 .def_131))
(define-fun .def_133 () Bool (and .def_103 .def_132))
(define-fun .def_134 () Bool (and .def_105 .def_133))
(define-fun .def_135 () Bool (and .def_107 .def_134))
(define-fun .def_136 () Bool (and .def_109 .def_135))
(define-fun .def_137 () Bool (and .def_111 .def_136))
(define-fun .def_138 () Bool (and .def_113 .def_137))
(define-fun .def_151 () Bool (and .def_138 .def_150))
(define-fun .def_146 () Bool (and .def_140 .def_145))
(define-fun .def_119 () Int (* (- 1) |!{$(in_main#0)<x>}.next|))
(define-fun .def_120 () Int (+ .def_14 .def_119))
(define-fun .def_121 () Bool (= .def_120 (- 1)))
(define-fun .def_122 () Bool (and .def_117 .def_121))
(define-fun .def_123 () Bool (and .def_105 .def_122))
(define-fun .def_124 () Bool (and .def_107 .def_123))
(define-fun .def_125 () Bool (and .def_109 .def_124))
(define-fun .def_126 () Bool (and .def_111 .def_125))
(define-fun .def_127 () Bool (and .def_113 .def_126))
(define-fun .def_89 () Int (select .def_24 .def_14))
(define-fun .def_88 () Int (select .def_16 .def_14))
(define-fun .def_90 () Bool (= .def_88 .def_89))
(define-fun .def_91 () Int (ite .def_90 1 0))
(define-fun .def_92 () Bool (= .def_91 0))
(define-fun .def_93 () Bool (not .def_92))
(define-fun .def_128 () Bool (and .def_93 .def_127))
(define-fun .def_87 () Bool (not .def_86))
(define-fun .def_129 () Bool (and .def_87 .def_128))
(define-fun .def_147 () Bool (and .def_129 .def_146))
(define-fun .def_142 () Bool (= !pc.next 140))
(define-fun .def_143 () Bool (and .def_140 .def_142))
(define-fun .def_98 () Bool (and .def_92 .def_97))
(define-fun .def_100 () Bool (and .def_98 .def_99))
(define-fun .def_102 () Bool (and .def_100 .def_101))
(define-fun .def_104 () Bool (and .def_102 .def_103))
(define-fun .def_106 () Bool (and .def_104 .def_105))
(define-fun .def_108 () Bool (and .def_106 .def_107))
(define-fun .def_110 () Bool (and .def_108 .def_109))
(define-fun .def_112 () Bool (and .def_110 .def_111))
(define-fun .def_114 () Bool (and .def_112 .def_113))
(define-fun .def_115 () Bool (and .def_87 .def_114))
(define-fun .def_144 () Bool (and .def_115 .def_143))
(define-fun .def_148 () Bool (or .def_144 .def_147))
(define-fun .def_152 () Bool (or .def_148 .def_151))
(define-fun .def_84 () Bool (and .def_49 .def_83))
(define-fun .def_80 () Bool (= |!{$(in_main#0)<a5.5>}.next| |%{$(in_main#0)<a5.5>}#1|))
(define-fun .def_78 () Bool (= |!{$(in_main#0)<a3.4>}.next| |%{$(in_main#0)<a3.4>}#1|))
(define-fun .def_76 () Bool (= |!{$(in_main#0)<a2.3>}.next| |%{$(in_main#0)<a2.3>}#1|))
(define-fun .def_74 () Bool (= |!{$(in_main#0)<a4.2>}.next| |%{$(in_main#0)<a4.2>}#1|))
(define-fun .def_72 () Bool (= |!{$(in_main#0)<a1.1>}.next| |%{$(in_main#0)<a1.1>}#1|))
(define-fun .def_70 () Bool (= |!{$(in_main#0)<x>}.next| |%{$(in_main#0)<x>}#1|))
(define-fun .def_68 () Bool (= |!{$(in_main#0)<i>}.next| |%{$(in_main#0)<i>}#1|))
(define-fun .def_66 () Bool (= |!{$(in_main#0)<a>}.next| 0))
(define-fun .def_65 () Bool (= |!{$(in_main#0)<N>}.next| |!{$(in_main#0)<$(in___VERIFIER_nondet_int#0)<h#<__VERIFIER_nondet_int.return>>>}|))
(define-fun .def_67 () Bool (and .def_65 .def_66))
(define-fun .def_69 () Bool (and .def_67 .def_68))
(define-fun .def_71 () Bool (and .def_69 .def_70))
(define-fun .def_73 () Bool (and .def_71 .def_72))
(define-fun .def_75 () Bool (and .def_73 .def_74))
(define-fun .def_77 () Bool (and .def_75 .def_76))
(define-fun .def_79 () Bool (and .def_77 .def_78))
(define-fun .def_81 () Bool (and .def_79 .def_80))
(define-fun .def_85 () Bool (and .def_81 .def_84))
(define-fun .def_153 () Bool (or .def_85 .def_152))
(define-fun .def_189 () Bool (or .def_153 .def_188))
(define-fun .def_212 () Bool (or .def_189 .def_211))
(define-fun .def_227 () Bool (or .def_212 .def_226))
(define-fun .def_243 () Bool (or .def_227 .def_242))
(define-fun .def_270 () Bool (! (or .def_243 .def_269) :trans true))
(define-fun .def_154 () Bool (= .def_46 140))
(define-fun .def_271 () Bool (! (not .def_154) :invar-property 0 :invar-property-name ||))
(assert true)
